TCS_Benchmarks/redos_fix/snort3_output_distinct_4069_4068_0_0.smt2
(set-logic QF_S)
(declare-const x String)
(assert (str.in.re x (re.inter (re.* (re.comp  (str.to.re "\u{3e}")) )  (re.++ (re.* (re.comp  (str.to.re "\u{3e}")) ) (re.++  (re.union  (re.++  (str.to.re "\u{26}") (re.++  (re.union  (str.to.re "\u{71}")  (str.to.re "\u{51}")) (re.++  (re.union  (str.to.re "\u{75}")  (str.to.re "\u{55}")) (re.++  (re.union  (str.to.re "\u{6f}")  (str.to.re "\u{4f}")) (re.++  (re.union  (str.to.re "\u{74}")  (str.to.re "\u{54}"))  (str.to.re "\u{3b}"))))))  (re.++  (str.to.re "\u{26}") (re.++  (str.to.re "\u{23}") (re.++  (str.to.re "\u{33}")  (str.to.re "\u{34}"))))) (re.* (re.comp  (str.to.re "\u{3e}")) ))) (re.* (re.comp  (str.to.re "\u{3e}")) ) )))
(check-sat)
(get-model)