TCS_Benchmarks/redos_fix/snort3_output_distinct_4069_4068_0_0.txt
[^>]*
([^>]*)((&[qQ][uU][oO][tT];|&#34))([^>]*)
[^>]*